NAME : XML100_3176_25
DIMENSION : 101
NB_CLUSTERS : 19
CLUSTERING_ALG : KMedoids
CLUSTERING_PARAMS : k(20)
CLUSTERS
1 0
2 3 44 61 70
3 7 92
4 23 31
5 5 10 22 34 39 88
6 35 55 77
7 8 15 16 33 52 53 59 67
8 38 79
9 2 4 26 29 58 69 89 99
10 11 21 27 30 37 43 84
11 40 47 60 74 80 86
12 9 48 65 73 85 91
13 1 6 41 50 66 76 93
14 28 32 46 68 81 82 90
15 24 45 75 96
16 62 95 97
17 19 49 57 83
18 12 13 20 25 36 42 51 64 71 78 87 98
19 14 17 18 54 56 63 72 94 100
EOF